c colouring generated by benchmark framework
p edge 191 2360
v 1 7
v 2 5
v 3 2
v 4 4
v 5 3
v 6 0
v 7 5
v 8 1
v 9 1
v 10 6
v 11 3
v 12 7
v 13 3
v 14 7
v 15 2
v 16 7
v 17 7
v 18 6
v 19 7
v 20 6
v 21 6
v 22 3
v 23 1
v 24 0
v 25 3
v 26 4
v 27 4
v 28 3
v 29 7
v 30 6
v 31 0
v 32 6
v 33 6
v 34 3
v 35 7
v 36 3
v 37 4
v 38 4
v 39 3
v 40 6
v 41 6
v 42 6
v 43 6
v 44 6
v 45 4
v 46 0
v 47 1
v 48 0
v 49 5
v 50 0
v 51 4
v 52 5
v 53 6
v 54 6
v 55 0
v 56 6
v 57 5
v 58 3
v 59 7
v 60 3
v 61 2
v 62 2
v 63 7
v 64 2
v 65 6
v 66 7
v 67 2
v 68 6
v 69 3
v 70 0
v 71 0
v 72 3
v 73 0
v 74 4
v 75 0
v 76 0
v 77 5
v 78 0
v 79 5
v 80 6
v 81 3
v 82 0
v 83 3
v 84 7
v 85 2
v 86 0
v 87 0
v 88 6
v 89 7
v 90 6
v 91 0
v 92 3
v 93 5
v 94 5
v 95 1
v 96 0
v 97 5
v 98 1
v 99 4
v 100 3
v 101 0
v 102 5
v 103 2
v 104 1
v 105 5
v 106 4
v 107 2
v 108 3
v 109 4
v 110 2
v 111 3
v 112 6
v 113 6
v 114 4
v 115 4
v 116 6
v 117 2
v 118 5
v 119 0
v 120 4
v 121 2
v 122 4
v 123 3
v 124 0
v 125 4
v 126 2
v 127 6
v 128 6
v 129 3
v 130 3
v 131 3
v 132 2
v 133 2
v 134 3
v 135 6
v 136 4
v 137 2
v 138 6
v 139 6
v 140 3
v 141 0
v 142 1
v 143 0
v 144 3
v 145 0
v 146 5
v 147 5
v 148 0
v 149 5
v 150 0
v 151 6
v 152 0
v 153 2
v 154 2
v 155 5
v 156 2
v 157 4
v 158 5
v 159 2
v 160 6
v 161 2
v 162 5
v 163 5
v 164 3
v 165 0
v 166 0
v 167 4
v 168 4
v 169 5
v 170 5
v 171 6
v 172 4
v 173 2
v 174 0
v 175 5
v 176 3
v 177 6
v 178 4
v 179 2
v 180 2
v 181 5
v 182 0
v 183 0
v 184 4
v 185 4
v 186 0
v 187 3
v 188 4
v 189 2
v 190 1
v 191 7
